W=7;
H=7;

MAX_TIME=19;
MAX_TRACKS=15;

TARGET=(1,7);

TRAINS=[(7,5,TOP),(7,3,TOP)];
DECOYS=[(5,4,LEFT)];

INIT_POS=[
(1,5,STRAIGHT_RL),
(1,6,STRAIGHT_RL),
(1,7,STRAIGHT_RL),
(2,4,STRAIGHT_RL),
(3,3,ESWITCH_R_L_T),
(3,4,STRAIGHT_RL),
(3,5,ESWITCH_L_R_T),
(5,2,ESWITCH_L_R_D),
(5,3,ESWITCH_R_L_D),
(5,4,STRAIGHT_RL),
(5,5,ESWITCH_L_R_D),
(5,6,ESWITCH_R_L_D),
(7,3,STRAIGHT_TD),
(7,5,STRAIGHT_TD),
];
TUNNEL_PAIRS=[
  (3, 2, RIGHT, 5, 7, LEFT),
  (3, 6, LEFT, 5, 1, RIGHT),
];

GATES=[
(1,5,1,false),
];
ACTIVATIONS=[
(2,4,1),
];

DSWITCHES=[];
STATIONS=[];

SEMAPHORE_SUPPLY=0;
